6 2
342 3197 913 964 3950 1056
0 4533 961 3197 1275 238 2054
882 0 717 4420 3860 4892 3382
1063 3318 0 3977 4415 2335 1449
1129 3828 3569 0 2152 4847 4471
2509 1003 2015 2267 0 3348 476
4250 4961 247 3383 4191 0 3306
1739 1123 4837 3465 921 4016 0